% MIT License
%
% Copyright (c) 2021 Johan Ludde Wessén
%
% Permission is hereby granted, free of charge, to any person obtaining 
% a copy of this software and associated documentation files (the "Software"),
% to deal in the Software without restriction, including without limitation 
% the rights to use, copy, modify, merge, publish, distribute, sublicense, 
% and/or sell copies of the Software, and to permit persons to whom the 
% Software is furnished to do so, subject to the following conditions:
% 
% The above copyright notice and this permission notice shall be included 
% in all copies or substantial portions of the Software.
%
% THE SOFTWARE IS PROVIDED "AS IS", WITHOUT WARRANTY OF ANY KIND, 
% EXPRESS OR IMPLIED, INCLUDING BUT NOT LIMITED TO THE WARRANTIES OF
% MERCHANTABILITY, FITNESS FOR A PARTICULAR PURPOSE AND
% NONINFRINGEMENT. IN NO EVENT SHALL THE AUTHORS OR COPYRIGHT HOLDERS BE
% LIABLE FOR ANY CLAIM, DAMAGES OR OTHER LIABILITY, WHETHER IN AN ACTION
% OF CONTRACT, TORT OR OTHERWISE, ARISING FROM, OUT OF OR IN CONNECTION
% WITH THE SOFTWARE OR THE USE OR OTHER DEALINGS IN THE SOFTWARE.

%-----------------------------------------------------------------------------%
% Dual Arm Multi Capacity Multi Tool Scheduling / Routing
% Assembly Configuration
% Auto Generated by python script, authored by Johan Ludde Wessen 
%-----------------------------------------------------------------------------%


task_durations = [|21, 25, 25, 26, 20, 31, 42, 52, 49, 50, 51, 46, 37, 23,  7,  5,  5,  6,  5
                  |25, 31, 29, 22, 22, 27, 47, 55, 52, 59, 51, 48, 30, 29,  5,  6,  4,  5,  6
                  |];


TRAY_TASKS = 1..4;
CAMERA_TASKS = 13..14;
OUTPUT_TASKS = { 12 };


empty_gripper_tasks = 15..19;


gripper_pick_tasks_orders = [|1, 7, -1
|2, 8, -1
|5, 11, -1
|6, 12, -1
|];

suction_pick_tasks_orders = [|3, 13, 9, -1
|4, 14, 10, -1
|];

fixture_task_orders = [|9, 17, 7, 15, 5, -1, -1, -1
|10, 18, 8, 16, 11, 19, 6, -1
|];


% MIT License
%
% Copyright (c) 2021 Johan Ludde Wessén
%
% Permission is hereby granted, free of charge, to any person obtaining 
% a copy of this software and associated documentation files (the "Software"),
% to deal in the Software without restriction, including without limitation 
% the rights to use, copy, modify, merge, publish, distribute, sublicense, 
% and/or sell copies of the Software, and to permit persons to whom the 
% Software is furnished to do so, subject to the following conditions:
% 
% The above copyright notice and this permission notice shall be included 
% in all copies or substantial portions of the Software.
%
% THE SOFTWARE IS PROVIDED "AS IS", WITHOUT WARRANTY OF ANY KIND, 
% EXPRESS OR IMPLIED, INCLUDING BUT NOT LIMITED TO THE WARRANTIES OF
% MERCHANTABILITY, FITNESS FOR A PARTICULAR PURPOSE AND
% NONINFRINGEMENT. IN NO EVENT SHALL THE AUTHORS OR COPYRIGHT HOLDERS BE
% LIABLE FOR ANY CLAIM, DAMAGES OR OTHER LIABILITY, WHETHER IN AN ACTION
% OF CONTRACT, TORT OR OTHERWISE, ARISING FROM, OUT OF OR IN CONNECTION
% WITH THE SOFTWARE OR THE USE OR OTHER DEALINGS IN THE SOFTWARE.


%-----------------------------------------------------------------------------%
% Dual Arm Multi Capacity Multi Tool Scheduling / Routing
% YuMi + Workspace Configuration
% Auto Generated by python scrip, authored by Ludde Wessen 
%-----------------------------------------------------------------------------%


no_suction_cups = 2;
left_arm_travel_times = [|
  -1, -1, -1, -1, -1, -1, -1, -1, -1, -1, -1, -1, -1, -1, -1, -1, -1, -1, -1, -1, -1, -1, -1, -1, -1, -1, -1, -1, -1,
| -1, -1, -1, -1, -1, -1, -1, -1, -1, -1, -1, -1, -1, -1, -1, -1, -1, -1, -1, -1, -1, -1, -1, -1, -1, -1, -1, -1, -1,
| -1, -1, -1, -1, -1, -1, -1, -1, -1, -1, -1, -1, -1, -1, -1, -1, -1, -1, -1, -1, -1, -1, -1, -1, -1, -1, -1, -1, -1,
| -1, -1, -1,  0, 30, -1, 48, 57, 82, 97,101,117, -1, -1, -1, -1, 42, 81, 56, 64, 95,101,105,126, 25, 26, 72,106, -1,
| -1, -1, -1, 30,  0, -1, 57, 48, 62,101, 97,104, -1, -1, -1, -1, 28, 61, 64, 56, 78,105,101,115, 44, 31, 91,105, -1,
| -1, -1, -1, -1, -1, -1, -1, -1, -1, -1, -1, -1, -1, -1, -1, -1, -1, -1, -1, -1, -1, -1, -1, -1, -1, -1, -1, -1, -1,
| -1, -1, -1, 48, 57, -1,  0, 30, 66, 48, 57, 82, -1, -1, -1, -1, 64, 95, 28, 42, 81, 56, 64, 95, 25, 26, 72, 66, -1,
| -1, -1, -1, 57, 48, -1, 30,  0, 39, 57, 48, 62, -1, -1, -1, -1, 56, 78, 42, 28, 61, 64, 56, 78, 44, 31, 91, 64, -1,
| -1, -1, -1, 82, 62, -1, 66, 39,  0, 82, 62, 48, -1, -1, -1, -1, 57, 56, 62, 31, 28, 78, 57, 56, 77, 62,106, 65, -1,
| -1, -1, -1, 97,101, -1, 48, 57, 82,  0, 30, 66, -1, -1, -1, -1,105,126, 56, 64, 95, 28, 42, 81, 73, 73, 99, 47, -1,
| -1, -1, -1,101, 97, -1, 57, 48, 62, 30,  0, 39, -1, -1, -1, -1,101,115, 64, 56, 78, 42, 28, 61, 82, 75,114, 44, -1,
| -1, -1, -1,117,104, -1, 82, 62, 48, 66, 39,  0, -1, -1, -1, -1,102,101, 78, 57, 56, 62, 31, 28,103, 92,126, 45, -1,
| -1, -1, -1, -1, -1, -1, -1, -1, -1, -1, -1, -1, -1, -1, -1, -1, -1, -1, -1, -1, -1, -1, -1, -1, -1, -1, -1, -1, -1,
| -1, -1, -1, -1, -1, -1, -1, -1, -1, -1, -1, -1, -1, -1, -1, -1, -1, -1, -1, -1, -1, -1, -1, -1, -1, -1, -1, -1, -1,
| -1, -1, -1, -1, -1, -1, -1, -1, -1, -1, -1, -1, -1, -1, -1, -1, -1, -1, -1, -1, -1, -1, -1, -1, -1, -1, -1, -1, -1,
| -1, -1, -1, -1, -1, -1, -1, -1, -1, -1, -1, -1, -1, -1, -1, -1, -1, -1, -1, -1, -1, -1, -1, -1, -1, -1, -1, -1, -1,
| -1, -1, -1, 42, 28, -1, 64, 56, 57,105,101,102, -1, -1, -1, -1,  0, 39, 57, 48, 62,101, 97,104, 53, 42, 77, 97, -1,
| -1, -1, -1, 81, 61, -1, 95, 78, 56,126,115,101, -1, -1, -1, -1, 39,  0, 82, 62, 48,117,104, 97, 90, 78,101,104, -1,
| -1, -1, -1, 56, 64, -1, 28, 42, 62, 56, 64, 78, -1, -1, -1, -1, 57, 82,  0, 30, 66, 48, 57, 82, 38, 38, 52, 53, -1,
| -1, -1, -1, 64, 56, -1, 42, 28, 31, 64, 56, 57, -1, -1, -1, -1, 48, 62, 30,  0, 39, 57, 48, 62, 53, 42, 77, 50, -1,
| -1, -1, -1, 95, 78, -1, 81, 61, 28, 95, 78, 56, -1, -1, -1, -1, 62, 48, 66, 39,  0, 82, 62, 48, 90, 78,101, 63, -1,
| -1, -1, -1,101,105, -1, 56, 64, 78, 28, 42, 62, -1, -1, -1, -1,101,117, 48, 57, 82,  0, 30, 66, 78, 78, 86, 24, -1,
| -1, -1, -1,105,101, -1, 64, 56, 57, 42, 28, 31, -1, -1, -1, -1, 97,104, 57, 48, 62, 30,  0, 39, 86, 80,103, 17, -1,
| -1, -1, -1,126,115, -1, 95, 78, 56, 81, 61, 28, -1, -1, -1, -1,104, 97, 82, 62, 48, 66, 39,  0,113,104,122, 42, -1,
| -1, -1, -1, 25, 44, -1, 25, 44, 77, 73, 82,103, -1, -1, -1, -1, 53, 90, 38, 53, 90, 78, 86,113,  0, 17, 64, 87, -1,
| -1, -1, -1, 26, 31, -1, 26, 31, 62, 73, 75, 92, -1, -1, -1, -1, 42, 78, 38, 42, 78, 78, 80,104, 17,  0, 74, 83, -1,
| -1, -1, -1, 72, 91, -1, 72, 91,106, 99,114,126, -1, -1, -1, -1, 77,101, 52, 77,101, 86,103,122, 64, 74,  0, 92, -1,
| -1, -1, -1,106,105, -1, 66, 64, 65, 47, 44, 45, -1, -1, -1, -1, 97,104, 53, 50, 63, 24, 17, 42, 87, 83, 92,  0, -1,
| -1, -1, -1, -1, -1, -1, -1, -1, -1, -1, -1, -1, -1, -1, -1, -1, -1, -1, -1, -1, -1, -1, -1, -1, -1, -1, -1, -1, -1
|];

right_arm_travel_times = [|
   0, 30, 66, 48, 57, 82, 97,101, -1, -1, -1, -1, 28, 42, 81, 56, 64, 95, -1,105,126, -1, -1, -1, 73, 73, 99, -1, 47,
| 30,  0, 39, 57, 48, 62,101, 97, -1, -1, -1, -1, 42, 28, 61, 64, 56, 78, -1,101,115, -1, -1, -1, 82, 75,114, -1, 44,
| 66, 39,  0, 82, 62, 48,117,104, -1, -1, -1, -1, 62, 31, 28, 78, 57, 56, -1,102,101, -1, -1, -1,103, 92,126, -1, 45,
| 48, 57, 82,  0, 30, 66, 48, 57, -1, -1, -1, -1, 56, 64, 95, 28, 42, 81, -1, 64, 95, -1, -1, -1, 25, 26, 72, -1, 66,
| 57, 48, 62, 30,  0, 39, 57, 48, -1, -1, -1, -1, 64, 56, 78, 42, 28, 61, -1, 56, 78, -1, -1, -1, 44, 31, 91, -1, 64,
| 82, 62, 48, 66, 39,  0, 82, 62, -1, -1, -1, -1, 78, 57, 56, 62, 31, 28, -1, 57, 56, -1, -1, -1, 77, 62,106, -1, 65,
| 97,101,117, 48, 57, 82,  0, 30, -1, -1, -1, -1,101,105,126, 56, 64, 95, -1, 42, 81, -1, -1, -1, 25, 26, 72, -1,106,
|101, 97,104, 57, 48, 62, 30,  0, -1, -1, -1, -1,105,101,115, 64, 56, 78, -1, 28, 61, -1, -1, -1, 44, 31, 91, -1,105,
| -1, -1, -1, -1, -1, -1, -1, -1, -1, -1, -1, -1, -1, -1, -1, -1, -1, -1, -1, -1, -1, -1, -1, -1, -1, -1, -1, -1, -1,
| -1, -1, -1, -1, -1, -1, -1, -1, -1, -1, -1, -1, -1, -1, -1, -1, -1, -1, -1, -1, -1, -1, -1, -1, -1, -1, -1, -1, -1,
| -1, -1, -1, -1, -1, -1, -1, -1, -1, -1, -1, -1, -1, -1, -1, -1, -1, -1, -1, -1, -1, -1, -1, -1, -1, -1, -1, -1, -1,
| -1, -1, -1, -1, -1, -1, -1, -1, -1, -1, -1, -1, -1, -1, -1, -1, -1, -1, -1, -1, -1, -1, -1, -1, -1, -1, -1, -1, -1,
| 28, 42, 62, 56, 64, 78,101,105, -1, -1, -1, -1,  0, 30, 66, 48, 57, 82, -1,101,117, -1, -1, -1, 78, 78, 86, -1, 24,
| 42, 28, 31, 64, 56, 57,105,101, -1, -1, -1, -1, 30,  0, 39, 57, 48, 62, -1, 97,104, -1, -1, -1, 86, 80,103, -1, 17,
| 81, 61, 28, 95, 78, 56,126,115, -1, -1, -1, -1, 66, 39,  0, 82, 62, 48, -1,104, 97, -1, -1, -1,113,104,122, -1, 42,
| 56, 64, 78, 28, 42, 62, 56, 64, -1, -1, -1, -1, 48, 57, 82,  0, 30, 66, -1, 57, 82, -1, -1, -1, 38, 38, 52, -1, 53,
| 64, 56, 57, 42, 28, 31, 64, 56, -1, -1, -1, -1, 57, 48, 62, 30,  0, 39, -1, 48, 62, -1, -1, -1, 53, 42, 77, -1, 50,
| 95, 78, 56, 81, 61, 28, 95, 78, -1, -1, -1, -1, 82, 62, 48, 66, 39,  0, -1, 62, 48, -1, -1, -1, 90, 78,101, -1, 63,
| -1, -1, -1, -1, -1, -1, -1, -1, -1, -1, -1, -1, -1, -1, -1, -1, -1, -1, -1, -1, -1, -1, -1, -1, -1, -1, -1, -1, -1,
|105,101,102, 64, 56, 57, 42, 28, -1, -1, -1, -1,101, 97,104, 57, 48, 62, -1,  0, 39, -1, -1, -1, 53, 42, 77, -1, 97,
|126,115,101, 95, 78, 56, 81, 61, -1, -1, -1, -1,117,104, 97, 82, 62, 48, -1, 39,  0, -1, -1, -1, 90, 78,101, -1,104,
| -1, -1, -1, -1, -1, -1, -1, -1, -1, -1, -1, -1, -1, -1, -1, -1, -1, -1, -1, -1, -1, -1, -1, -1, -1, -1, -1, -1, -1,
| -1, -1, -1, -1, -1, -1, -1, -1, -1, -1, -1, -1, -1, -1, -1, -1, -1, -1, -1, -1, -1, -1, -1, -1, -1, -1, -1, -1, -1,
| -1, -1, -1, -1, -1, -1, -1, -1, -1, -1, -1, -1, -1, -1, -1, -1, -1, -1, -1, -1, -1, -1, -1, -1, -1, -1, -1, -1, -1,
| 73, 82,103, 25, 44, 77, 25, 44, -1, -1, -1, -1, 78, 86,113, 38, 53, 90, -1, 53, 90, -1, -1, -1,  0, 17, 64, -1, 87,
| 73, 75, 92, 26, 31, 62, 26, 31, -1, -1, -1, -1, 78, 80,104, 38, 42, 78, -1, 42, 78, -1, -1, -1, 17,  0, 74, -1, 83,
| 99,114,126, 72, 91,106, 72, 91, -1, -1, -1, -1, 86,103,122, 52, 77,101, -1, 77,101, -1, -1, -1, 64, 74,  0, -1, 92,
| -1, -1, -1, -1, -1, -1, -1, -1, -1, -1, -1, -1, -1, -1, -1, -1, -1, -1, -1, -1, -1, -1, -1, -1, -1, -1, -1, -1, -1,
| 47, 44, 45, 66, 64, 65,106,105, -1, -1, -1, -1, 24, 17, 42, 53, 50, 63, -1, 97,104, -1, -1, -1, 87, 83, 92, -1,  0
|];

%                    Tray 1,   Tray 2,   Tray 3,   Tray 4,   Tray 5,   Tray 6,   Tray 7,   Tray 8,   Tray 9,   Tray10,   Tray11,   Tray12, Camera 1, Camera 2, Camera 3, Camera 4, Camera 5, Camera 6, Camera 7, Camera 8, Camera 9, Camera10, Camera11, Camera12,Fixture 1,Fixture 2,Fixture 3, AirGun 1, Output 1,
%                         1,        2,        3,        4,        5,        6,        7,        8,        9,       10,       11,       12,       13,       14,       15,       16,       17,       18,       19,       20,       21,       22,       23,       24,       25,       26,       27,       28,       29,
location_order = [        7,        6,        5,        6,        4,        4,        1,        3,        3,        0,        1,        2,        7,        6,        5,        6,        4,        4,        1,        3,        3,        0,        1,        2,       -1,       -2,       -3,        1,        6];


FixtureWorkObstruction = [3, 4];


TRAY_LOCATIONS = 1..12;
CAMERA_LOCATIONS = 13..24;
FIXTURE_LOCATIONS = 25..27;
AIRGUN_LOCATIONS = 28..28;
OUTPUT_LOCATIONS = 29..29;

%-----------------------------------------------------------------------------%
% Dual Arm Multi Capacity Multi Tool Scheduling / Routing
% YuMi + Workspace Configuration
% Auto Generated by python scrip, authored by Ludde Wessen
%-----------------------------------------------------------------------------%


%                           Tray 1,   Tray 2,   Tray 3,   Tray 4,   Tray 5,   Tray 6,   Tray 7,   Tray 8,   Tray 9,   Tray10,   Tray11,   Tray12, Camera 1, Camera 2, Camera 3, Camera 4, Camera 5, Camera 6, Camera 7, Camera 8, Camera 9, Camera10, Camera11,  Camera12,Fixture 1,Fixture 2,Fixture 3, AirGun 1, Output 1,
%                                1,        2,        3,        4,        5,        6,        7,        8,        9,       10,       11,       12,       13,       14,       15,       16,       17,       18,       19,       20,       21,       22,       23,        24,       25,       26,       27,       28,       29,
wait_zones_left_data  = [     {  },     {  },     {  }, { 3, 6 },    { 4 },     {  }, { 9, 6 }, { 9, 7 },{ 8, 10 },    { 9 },{ 9, 10 },{ 10, 11 },    {  },     {  },     {  },     {  },    { 4 },    { 5 }, { 9, 6 },{ 10, 7 },{ 8, 10 },    { 9 },   { 10 },{ 10, 11 }, { 9, 6 }, { 9, 6 },    { 6 },   { 10 },      {  }];
wait_zones_right_data = [    { 0 }, { 0, 1 }, { 1, 2 }, { 0, 3 }, { 0, 4 }, { 1, 5 }, { 3, 6 },    { 7 },     {  },     {  },     {  },     {  },    { 0 },    { 1 }, { 1, 2 }, { 0, 3 }, { 1, 4 }, { 1, 5 },     {  },    { 7 },    { 8 },     {  },     {  },      {  }, { 0, 3 }, { 0, 3 },    { 3 },     {  },     { 1 }];
work_zones_left_data  = [     {  },     {  },     {  }, { 3, 6 },    { 4 },     {  }, { 9, 6 }, { 9, 7 },{ 8, 10 },    { 9 },{ 9, 10 },{ 10, 11 },    {  },     {  },     {  },     {  },    { 4 },    { 5 }, { 9, 6 },{ 10, 7 },{ 8, 10 },    { 9 },   { 10 },{ 10, 11 },{ 12, 6 },{ 13, 6 },   { 14 },   { 10 },      {  }];
work_zones_right_data = [    { 0 }, { 0, 1 }, { 1, 2 }, { 0, 3 }, { 0, 4 }, { 1, 5 }, { 3, 6 },    { 7 },     {  },     {  },     {  },     {  },    { 0 },    { 1 }, { 1, 2 }, { 0, 3 }, { 1, 4 }, { 1, 5 },     {  },    { 7 },    { 8 },     {  },     {  },      {  },{ 3, 12 },{ 3, 13 },   { 14 },     {  },     { 1 }];

travel_zones_left_data = [|
           { },          { },          { },          { },          { },          { },          { },          { },          { },          { },          { },          { },          { },          { },          { },          { },          { },          { },          { },          { },          { },          { },          { },          { },          { },          { },          { },          { },          { }
 |         { },          { },          { },          { },          { },          { },          { },          { },          { },          { },          { },          { },          { },          { },          { },          { },          { },          { },          { },          { },          { },          { },          { },          { },          { },          { },          { },          { },          { }
 |         { },          { },          { },          { },          { },          { },          { },          { },          { },          { },          { },          { },          { },          { },          { },          { },          { },          { },          { },          { },          { },          { },          { },          { },          { },          { },          { },          { },          { }
 |         { },          { },          { },       {3, 6},    {3, 4, 6},          { },    {9, 3, 6}, {9, 3, 6, 7}, {8, 10, 3, 6},    {9, 3, 6}, {9, 10, 3, 6}, {11, 10, 3, 6},          { },          { },          { },          { },    {3, 4, 6},    {3, 5, 6},    {9, 3, 6}, {10, 3, 6, 7}, {8, 10, 3, 6},    {9, 3, 6},    {10, 3, 6}, {11, 10, 3, 6},    {9, 3, 6},    {9, 3, 6},       {3, 6},    {10, 3, 6},          { }
 |         { },          { },          { },    {3, 4, 6},          {4},          { },    {9, 4, 6},    {9, 4, 7},    {8, 10, 4},       {9, 4},    {9, 10, 4},    {10, 11, 4},          { },          { },          { },          { },          {4},       {4, 5},    {9, 4, 6},    {10, 4, 7},    {8, 10, 4},       {9, 4},       {10, 4},    {10, 11, 4},    {9, 4, 6},    {9, 4, 6},       {4, 6},       {10, 4},          { }
 |         { },          { },          { },          { },          { },          { },          { },          { },          { },          { },          { },          { },          { },          { },          { },          { },          { },          { },          { },          { },          { },          { },          { },          { },          { },          { },          { },          { },          { }
 |         { },          { },          { },    {9, 3, 6},    {9, 4, 6},          { },       {9, 6},    {9, 6, 7}, {8, 9, 10, 6},       {9, 6},    {9, 10, 6}, {9, 10, 11, 6},          { },          { },          { },          { },    {9, 4, 6},    {9, 5, 6},       {9, 6}, {9, 10, 6, 7}, {8, 9, 10, 6},       {9, 6},    {9, 10, 6}, {9, 10, 11, 6},       {9, 6},       {9, 6},       {9, 6},    {9, 10, 6},          { }
 |         { },          { },          { }, {9, 3, 6, 7},    {9, 4, 7},          { },    {9, 6, 7},       {9, 7}, {8, 9, 10, 7},       {9, 7},    {9, 10, 7}, {9, 10, 11, 7},          { },          { },          { },          { },    {9, 4, 7},    {9, 5, 7},    {9, 6, 7},    {9, 10, 7}, {8, 9, 10, 7},       {9, 7},    {9, 10, 7}, {9, 10, 11, 7},    {9, 6, 7},    {9, 6, 7},    {9, 6, 7},    {9, 10, 7},          { }
 |         { },          { },          { }, {8, 10, 3, 6},    {8, 10, 4},          { }, {8, 9, 10, 6}, {8, 9, 10, 7},       {8, 10},    {8, 9, 10},    {8, 9, 10},    {8, 10, 11},          { },          { },          { },          { },    {8, 10, 4},    {8, 10, 5}, {8, 9, 10, 6},    {8, 10, 7},       {8, 10},    {8, 9, 10},       {8, 10},    {8, 10, 11}, {8, 9, 10, 6}, {8, 9, 10, 6},    {8, 10, 6},       {8, 10},          { }
 |         { },          { },          { },    {9, 3, 6},       {9, 4},          { },       {9, 6},       {9, 7},    {8, 9, 10},          {9},       {9, 10},    {9, 10, 11},          { },          { },          { },          { },       {9, 4},       {9, 5},       {9, 6},    {9, 10, 7},    {8, 9, 10},          {9},       {9, 10},    {9, 10, 11},       {9, 6},       {9, 6},       {9, 6},       {9, 10},          { }
 |         { },          { },          { }, {9, 10, 3, 6},    {9, 10, 4},          { },    {9, 10, 6},    {9, 10, 7},    {8, 9, 10},       {9, 10},       {9, 10},    {9, 10, 11},          { },          { },          { },          { },    {9, 10, 4},    {9, 10, 5},    {9, 10, 6},    {9, 10, 7},    {8, 9, 10},       {9, 10},       {9, 10},    {9, 10, 11},    {9, 10, 6},    {9, 10, 6},    {9, 10, 6},       {9, 10},          { }
 |         { },          { },          { }, {3, 10, 11, 6},    {10, 11, 4},          { }, {9, 10, 11, 6}, {9, 10, 11, 7},    {8, 10, 11},    {9, 10, 11},    {9, 10, 11},       {10, 11},          { },          { },          { },          { },    {10, 11, 4},    {10, 11, 5}, {9, 10, 11, 6},    {10, 11, 7},    {8, 10, 11},    {9, 10, 11},       {10, 11},       {10, 11}, {9, 10, 11, 6}, {9, 10, 11, 6},    {10, 11, 6},       {10, 11},          { }
 |         { },          { },          { },          { },          { },          { },          { },          { },          { },          { },          { },          { },          { },          { },          { },          { },          { },          { },          { },          { },          { },          { },          { },          { },          { },          { },          { },          { },          { }
 |         { },          { },          { },          { },          { },          { },          { },          { },          { },          { },          { },          { },          { },          { },          { },          { },          { },          { },          { },          { },          { },          { },          { },          { },          { },          { },          { },          { },          { }
 |         { },          { },          { },          { },          { },          { },          { },          { },          { },          { },          { },          { },          { },          { },          { },          { },          { },          { },          { },          { },          { },          { },          { },          { },          { },          { },          { },          { },          { }
 |         { },          { },          { },          { },          { },          { },          { },          { },          { },          { },          { },          { },          { },          { },          { },          { },          { },          { },          { },          { },          { },          { },          { },          { },          { },          { },          { },          { },          { }
 |         { },          { },          { },    {3, 4, 6},          {4},          { },    {9, 4, 6},    {9, 4, 7},    {8, 10, 4},       {9, 4},    {9, 10, 4},    {10, 11, 4},          { },          { },          { },          { },          {4},       {4, 5},    {9, 4, 6},    {10, 4, 7},    {8, 10, 4},       {9, 4},       {10, 4},    {10, 11, 4},    {9, 4, 6},    {9, 4, 6},       {4, 6},       {10, 4},          { }
 |         { },          { },          { },    {3, 5, 6},       {4, 5},          { },    {9, 5, 6},    {9, 5, 7},    {8, 10, 5},       {9, 5},    {9, 10, 5},    {10, 11, 5},          { },          { },          { },          { },       {4, 5},          {5},    {9, 5, 6},    {10, 5, 7},    {8, 10, 5},       {9, 5},       {10, 5},    {10, 11, 5},    {9, 5, 6},    {9, 5, 6},       {5, 6},       {10, 5},          { }
 |         { },          { },          { },    {9, 3, 6},    {9, 4, 6},          { },       {9, 6},    {9, 6, 7}, {8, 9, 10, 6},       {9, 6},    {9, 10, 6}, {9, 10, 11, 6},          { },          { },          { },          { },    {9, 4, 6},    {9, 5, 6},       {9, 6}, {9, 10, 6, 7}, {8, 9, 10, 6},       {9, 6},    {9, 10, 6}, {9, 10, 11, 6},       {9, 6},       {9, 6},       {9, 6},    {9, 10, 6},          { }
 |         { },          { },          { }, {10, 3, 6, 7},    {10, 4, 7},          { }, {9, 10, 6, 7},    {9, 10, 7},    {8, 10, 7},    {9, 10, 7},    {9, 10, 7},    {10, 11, 7},          { },          { },          { },          { },    {10, 4, 7},    {10, 5, 7}, {9, 10, 6, 7},       {10, 7},    {8, 10, 7},    {9, 10, 7},       {10, 7},    {10, 11, 7}, {9, 10, 6, 7}, {9, 10, 6, 7},    {10, 6, 7},       {10, 7},          { }
 |         { },          { },          { }, {8, 10, 3, 6},    {8, 10, 4},          { }, {8, 9, 10, 6}, {8, 9, 10, 7},       {8, 10},    {8, 9, 10},    {8, 9, 10},    {8, 10, 11},          { },          { },          { },          { },    {8, 10, 4},    {8, 10, 5}, {8, 9, 10, 6},    {8, 10, 7},       {8, 10},    {8, 9, 10},       {8, 10},    {8, 10, 11}, {8, 9, 10, 6}, {8, 9, 10, 6},    {8, 10, 6},       {8, 10},          { }
 |         { },          { },          { },    {9, 3, 6},       {9, 4},          { },       {9, 6},       {9, 7},    {8, 9, 10},          {9},       {9, 10},    {9, 10, 11},          { },          { },          { },          { },       {9, 4},       {9, 5},       {9, 6},    {9, 10, 7},    {8, 9, 10},          {9},       {9, 10},    {9, 10, 11},       {9, 6},       {9, 6},       {9, 6},       {9, 10},          { }
 |         { },          { },          { },    {10, 3, 6},       {10, 4},          { },    {9, 10, 6},    {9, 10, 7},       {8, 10},       {9, 10},       {9, 10},       {10, 11},          { },          { },          { },          { },       {10, 4},       {10, 5},    {9, 10, 6},       {10, 7},       {8, 10},       {9, 10},          {10},       {10, 11},    {9, 10, 6},    {9, 10, 6},       {10, 6},          {10},          { }
 |         { },          { },          { }, {3, 10, 11, 6},    {10, 11, 4},          { }, {9, 10, 11, 6}, {9, 10, 11, 7},    {8, 10, 11},    {9, 10, 11},    {9, 10, 11},       {10, 11},          { },          { },          { },          { },    {10, 11, 4},    {10, 11, 5}, {9, 10, 11, 6},    {10, 11, 7},    {8, 10, 11},    {9, 10, 11},       {10, 11},       {10, 11}, {9, 10, 11, 6}, {9, 10, 11, 6},    {10, 11, 6},       {10, 11},          { }
 |         { },          { },          { },    {9, 3, 6},    {9, 4, 6},          { },       {9, 6},    {9, 6, 7}, {8, 9, 10, 6},       {9, 6},    {9, 10, 6}, {9, 10, 11, 6},          { },          { },          { },          { },    {9, 4, 6},    {9, 5, 6},       {9, 6}, {9, 10, 6, 7}, {8, 9, 10, 6},       {9, 6},    {9, 10, 6}, {9, 10, 11, 6},       {9, 6},       {9, 6},       {9, 6},    {9, 10, 6},          { }
 |         { },          { },          { },    {9, 3, 6},    {9, 4, 6},          { },       {9, 6},    {9, 6, 7}, {8, 9, 10, 6},       {9, 6},    {9, 10, 6}, {9, 10, 11, 6},          { },          { },          { },          { },    {9, 4, 6},    {9, 5, 6},       {9, 6}, {9, 10, 6, 7}, {8, 9, 10, 6},       {9, 6},    {9, 10, 6}, {9, 10, 11, 6},       {9, 6},       {9, 6},       {9, 6},    {9, 10, 6},          { }
 |         { },          { },          { },       {3, 6},       {4, 6},          { },       {9, 6},    {9, 6, 7},    {8, 10, 6},       {9, 6},    {9, 10, 6},    {10, 11, 6},          { },          { },          { },          { },       {4, 6},       {5, 6},       {9, 6},    {10, 6, 7},    {8, 10, 6},       {9, 6},       {10, 6},    {10, 11, 6},       {9, 6},       {9, 6},          {6},       {10, 6},          { }
 |         { },          { },          { },    {10, 3, 6},       {10, 4},          { },    {9, 10, 6},    {9, 10, 7},       {8, 10},       {9, 10},       {9, 10},       {10, 11},          { },          { },          { },          { },       {10, 4},       {10, 5},    {9, 10, 6},       {10, 7},       {8, 10},       {9, 10},          {10},       {10, 11},    {9, 10, 6},    {9, 10, 6},       {10, 6},          {10},          { }
 |         { },          { },          { },          { },          { },          { },          { },          { },          { },          { },          { },          { },          { },          { },          { },          { },          { },          { },          { },          { },          { },          { },          { },          { },          { },          { },          { },          { },          { }
|];


travel_zones_right_data = [|
           {0},       {0, 1},    {0, 1, 2},       {0, 3},       {0, 4},    {0, 1, 5},    {0, 3, 6},       {0, 7},          { },          { },          { },          { },          {0},       {0, 1},    {0, 1, 2},       {0, 3},    {0, 1, 4},    {0, 1, 5},          { },       {0, 7},       {0, 8},          { },          { },          { },       {0, 3},       {0, 3},       {0, 3},          { },       {0, 1}
 |      {0, 1},       {0, 1},    {0, 1, 2},    {0, 1, 3},    {0, 1, 4},    {0, 1, 5}, {0, 1, 3, 6},    {0, 1, 7},          { },          { },          { },          { },       {0, 1},       {0, 1},    {0, 1, 2},    {0, 1, 3},    {0, 1, 4},    {0, 1, 5},          { },    {0, 1, 7},    {0, 1, 8},          { },          { },          { },    {0, 1, 3},    {0, 1, 3},    {0, 1, 3},          { },       {0, 1}
 |   {0, 1, 2},    {0, 1, 2},       {1, 2}, {0, 1, 2, 3}, {0, 1, 2, 4},    {1, 2, 5}, {1, 2, 3, 6},    {1, 2, 7},          { },          { },          { },          { },    {0, 1, 2},       {1, 2},       {1, 2}, {0, 1, 2, 3},    {1, 2, 4},    {1, 2, 5},          { },    {1, 2, 7},    {8, 1, 2},          { },          { },          { }, {0, 1, 2, 3}, {0, 1, 2, 3},    {1, 2, 3},          { },       {1, 2}
 |      {0, 3},    {0, 1, 3}, {0, 1, 2, 3},       {0, 3},    {0, 3, 4}, {0, 1, 3, 5},    {0, 3, 6},    {0, 3, 7},          { },          { },          { },          { },       {0, 3},    {0, 1, 3}, {0, 1, 2, 3},       {0, 3}, {0, 1, 3, 4}, {0, 1, 3, 5},          { },    {0, 3, 7},    {0, 8, 3},          { },          { },          { },       {0, 3},       {0, 3},       {0, 3},          { },    {0, 1, 3}
 |      {0, 4},    {0, 1, 4}, {0, 1, 2, 4},    {0, 3, 4},       {0, 4}, {0, 1, 4, 5}, {0, 3, 4, 6},    {0, 4, 7},          { },          { },          { },          { },       {0, 4},    {0, 1, 4}, {0, 1, 2, 4},    {0, 3, 4},    {0, 1, 4}, {0, 1, 4, 5},          { },    {0, 4, 7},    {0, 8, 4},          { },          { },          { },    {0, 3, 4},    {0, 3, 4},    {0, 3, 4},          { },    {0, 1, 4}
 |   {0, 1, 5},    {0, 1, 5},    {1, 2, 5}, {0, 1, 3, 5}, {0, 1, 4, 5},       {1, 5}, {1, 3, 5, 6},    {1, 5, 7},          { },          { },          { },          { },    {0, 1, 5},       {1, 5},    {1, 2, 5}, {0, 1, 3, 5},    {1, 4, 5},       {1, 5},          { },    {1, 5, 7},    {8, 1, 5},          { },          { },          { }, {0, 1, 3, 5}, {0, 1, 3, 5},    {1, 3, 5},          { },       {1, 5}
 |   {0, 3, 6}, {0, 1, 3, 6}, {1, 2, 3, 6},    {0, 3, 6}, {0, 3, 4, 6}, {1, 3, 5, 6},       {3, 6},    {3, 6, 7},          { },          { },          { },          { },    {0, 3, 6},    {1, 3, 6}, {1, 2, 3, 6},    {0, 3, 6}, {1, 3, 4, 6}, {1, 3, 5, 6},          { },    {3, 6, 7},    {8, 3, 6},          { },          { },          { },    {0, 3, 6},    {0, 3, 6},       {3, 6},          { },    {1, 3, 6}
 |      {0, 7},    {0, 1, 7},    {1, 2, 7},    {0, 3, 7},    {0, 4, 7},    {1, 5, 7},    {3, 6, 7},          {7},          { },          { },          { },          { },       {0, 7},       {1, 7},    {1, 2, 7},    {0, 3, 7},    {1, 4, 7},    {1, 5, 7},          { },          {7},       {8, 7},          { },          { },          { },    {0, 3, 7},    {0, 3, 7},       {3, 7},          { },       {1, 7}
 |         { },          { },          { },          { },          { },          { },          { },          { },          { },          { },          { },          { },          { },          { },          { },          { },          { },          { },          { },          { },          { },          { },          { },          { },          { },          { },          { },          { },          { }
 |         { },          { },          { },          { },          { },          { },          { },          { },          { },          { },          { },          { },          { },          { },          { },          { },          { },          { },          { },          { },          { },          { },          { },          { },          { },          { },          { },          { },          { }
 |         { },          { },          { },          { },          { },          { },          { },          { },          { },          { },          { },          { },          { },          { },          { },          { },          { },          { },          { },          { },          { },          { },          { },          { },          { },          { },          { },          { },          { }
 |         { },          { },          { },          { },          { },          { },          { },          { },          { },          { },          { },          { },          { },          { },          { },          { },          { },          { },          { },          { },          { },          { },          { },          { },          { },          { },          { },          { },          { }
 |         {0},       {0, 1},    {0, 1, 2},       {0, 3},       {0, 4},    {0, 1, 5},    {0, 3, 6},       {0, 7},          { },          { },          { },          { },          {0},       {0, 1},    {0, 1, 2},       {0, 3},    {0, 1, 4},    {0, 1, 5},          { },       {0, 7},       {0, 8},          { },          { },          { },       {0, 3},       {0, 3},       {0, 3},          { },       {0, 1}
 |      {0, 1},       {0, 1},       {1, 2},    {0, 1, 3},    {0, 1, 4},       {1, 5},    {1, 3, 6},       {1, 7},          { },          { },          { },          { },       {0, 1},          {1},       {1, 2},    {0, 1, 3},       {1, 4},       {1, 5},          { },       {1, 7},       {8, 1},          { },          { },          { },    {0, 1, 3},    {0, 1, 3},       {1, 3},          { },          {1}
 |   {0, 1, 2},    {0, 1, 2},       {1, 2}, {0, 1, 2, 3}, {0, 1, 2, 4},    {1, 2, 5}, {1, 2, 3, 6},    {1, 2, 7},          { },          { },          { },          { },    {0, 1, 2},       {1, 2},       {1, 2}, {0, 1, 2, 3},    {1, 2, 4},    {1, 2, 5},          { },    {1, 2, 7},    {8, 1, 2},          { },          { },          { }, {0, 1, 2, 3}, {0, 1, 2, 3},    {1, 2, 3},          { },       {1, 2}
 |      {0, 3},    {0, 1, 3}, {0, 1, 2, 3},       {0, 3},    {0, 3, 4}, {0, 1, 3, 5},    {0, 3, 6},    {0, 3, 7},          { },          { },          { },          { },       {0, 3},    {0, 1, 3}, {0, 1, 2, 3},       {0, 3}, {0, 1, 3, 4}, {0, 1, 3, 5},          { },    {0, 3, 7},    {0, 8, 3},          { },          { },          { },       {0, 3},       {0, 3},       {0, 3},          { },    {0, 1, 3}
 |   {0, 1, 4},    {0, 1, 4},    {1, 2, 4}, {0, 1, 3, 4},    {0, 1, 4},    {1, 4, 5}, {1, 3, 4, 6},    {1, 4, 7},          { },          { },          { },          { },    {0, 1, 4},       {1, 4},    {1, 2, 4}, {0, 1, 3, 4},       {1, 4},    {1, 4, 5},          { },    {1, 4, 7},    {8, 1, 4},          { },          { },          { }, {0, 1, 3, 4}, {0, 1, 3, 4},    {1, 3, 4},          { },       {1, 4}
 |   {0, 1, 5},    {0, 1, 5},    {1, 2, 5}, {0, 1, 3, 5}, {0, 1, 4, 5},       {1, 5}, {1, 3, 5, 6},    {1, 5, 7},          { },          { },          { },          { },    {0, 1, 5},       {1, 5},    {1, 2, 5}, {0, 1, 3, 5},    {1, 4, 5},       {1, 5},          { },    {1, 5, 7},    {8, 1, 5},          { },          { },          { }, {0, 1, 3, 5}, {0, 1, 3, 5},    {1, 3, 5},          { },       {1, 5}
 |         { },          { },          { },          { },          { },          { },          { },          { },          { },          { },          { },          { },          { },          { },          { },          { },          { },          { },          { },          { },          { },          { },          { },          { },          { },          { },          { },          { },          { }
 |      {0, 7},    {0, 1, 7},    {1, 2, 7},    {0, 3, 7},    {0, 4, 7},    {1, 5, 7},    {3, 6, 7},          {7},          { },          { },          { },          { },       {0, 7},       {1, 7},    {1, 2, 7},    {0, 3, 7},    {1, 4, 7},    {1, 5, 7},          { },          {7},       {8, 7},          { },          { },          { },    {0, 3, 7},    {0, 3, 7},       {3, 7},          { },       {1, 7}
 |      {8, 0},    {8, 0, 1},    {8, 1, 2},    {8, 0, 3},    {8, 0, 4},    {8, 1, 5},    {8, 3, 6},       {8, 7},          { },          { },          { },          { },       {8, 0},       {8, 1},    {8, 1, 2},    {8, 0, 3},    {8, 1, 4},    {8, 1, 5},          { },       {8, 7},          {8},          { },          { },          { },    {8, 0, 3},    {8, 0, 3},       {8, 3},          { },       {8, 1}
 |         { },          { },          { },          { },          { },          { },          { },          { },          { },          { },          { },          { },          { },          { },          { },          { },          { },          { },          { },          { },          { },          { },          { },          { },          { },          { },          { },          { },          { }
 |         { },          { },          { },          { },          { },          { },          { },          { },          { },          { },          { },          { },          { },          { },          { },          { },          { },          { },          { },          { },          { },          { },          { },          { },          { },          { },          { },          { },          { }
 |         { },          { },          { },          { },          { },          { },          { },          { },          { },          { },          { },          { },          { },          { },          { },          { },          { },          { },          { },          { },          { },          { },          { },          { },          { },          { },          { },          { },          { }
 |      {0, 3},    {0, 1, 3}, {0, 1, 2, 3},       {0, 3},    {0, 3, 4}, {0, 1, 3, 5},    {0, 3, 6},    {0, 3, 7},          { },          { },          { },          { },       {0, 3},    {0, 1, 3}, {0, 1, 2, 3},       {0, 3}, {0, 1, 3, 4}, {0, 1, 3, 5},          { },    {0, 3, 7},    {0, 8, 3},          { },          { },          { },       {0, 3},       {0, 3},       {0, 3},          { },    {0, 1, 3}
 |      {0, 3},    {0, 1, 3}, {0, 1, 2, 3},       {0, 3},    {0, 3, 4}, {0, 1, 3, 5},    {0, 3, 6},    {0, 3, 7},          { },          { },          { },          { },       {0, 3},    {0, 1, 3}, {0, 1, 2, 3},       {0, 3}, {0, 1, 3, 4}, {0, 1, 3, 5},          { },    {0, 3, 7},    {0, 8, 3},          { },          { },          { },       {0, 3},       {0, 3},       {0, 3},          { },    {0, 1, 3}
 |      {0, 3},    {0, 1, 3},    {1, 2, 3},       {0, 3},    {0, 3, 4},    {1, 3, 5},       {3, 6},       {3, 7},          { },          { },          { },          { },       {0, 3},       {1, 3},    {1, 2, 3},       {0, 3},    {1, 3, 4},    {1, 3, 5},          { },       {3, 7},       {8, 3},          { },          { },          { },       {0, 3},       {0, 3},          {3},          { },       {1, 3}
 |         { },          { },          { },          { },          { },          { },          { },          { },          { },          { },          { },          { },          { },          { },          { },          { },          { },          { },          { },          { },          { },          { },          { },          { },          { },          { },          { },          { },          { }
 |      {0, 1},       {0, 1},       {1, 2},    {0, 1, 3},    {0, 1, 4},       {1, 5},    {1, 3, 6},       {1, 7},          { },          { },          { },          { },       {0, 1},          {1},       {1, 2},    {0, 1, 3},       {1, 4},       {1, 5},          { },       {1, 7},       {8, 1},          { },          { },          { },    {0, 1, 3},    {0, 1, 3},       {1, 3},          { },          {1}
|];
